c nIsolatedPIs 0
c maxPI 32
p cnf 320 865
c gate 33 -7 -23 0
-7 -33 0
-23 -33 0
7 23 33 0
c gate 34 -6 -22 0
-6 -34 0
-22 -34 0
6 22 34 0
c gate 35 5 21 0
5 -35 0
21 -35 0
-5 -21 35 0
c gate 36 4 20 0
4 -36 0
20 -36 0
-4 -20 36 0
c gate 37 3 19 0
3 -37 0
19 -37 0
-3 -19 37 0
c gate 38 -2 18 0
-2 -38 0
18 -38 0
2 -18 38 0
c gate 39 2 -18 0
2 -39 0
-18 -39 0
-2 18 39 0
c gate 40 -38 -39 0
-38 -40 0
-39 -40 0
38 39 40 0
c gate 41 1 17 0
1 -41 0
17 -41 0
-1 -17 41 0
c gate 42 -40 41 0
-40 -42 0
41 -42 0
40 -41 42 0
c gate 43 2 18 0
2 -43 0
18 -43 0
-2 -18 43 0
c gate 44 -42 -43 0
-42 -44 0
-43 -44 0
42 43 44 0
c gate 45 18 -44 0
18 -45 0
-44 -45 0
-18 44 45 0
c gate 46 -37 -45 0
-37 -46 0
-45 -46 0
37 45 46 0
c gate 47 -4 -20 0
-4 -47 0
-20 -47 0
4 20 47 0
c gate 48 -36 -47 0
-36 -48 0
-47 -48 0
36 47 48 0
c gate 49 -46 48 0
-46 -49 0
48 -49 0
46 -48 49 0
c gate 50 -36 -49 0
-36 -50 0
-49 -50 0
36 49 50 0
c gate 51 -35 50 0
-35 -51 0
50 -51 0
35 -50 51 0
c gate 52 -34 -51 0
-34 -52 0
-51 -52 0
34 51 52 0
c gate 53 -33 52 0
-33 -53 0
52 -53 0
33 -52 53 0
c gate 54 8 24 0
8 -54 0
24 -54 0
-8 -24 54 0
c gate 55 -8 -24 0
-8 -55 0
-24 -55 0
8 24 55 0
c gate 56 7 23 0
7 -56 0
23 -56 0
-7 -23 56 0
c gate 57 6 22 0
6 -57 0
22 -57 0
-6 -22 57 0
c gate 58 -5 21 0
-5 -58 0
21 -58 0
5 -21 58 0
c gate 59 5 -21 0
5 -59 0
-21 -59 0
-5 21 59 0
c gate 60 -58 -59 0
-58 -60 0
-59 -60 0
58 59 60 0
c gate 61 -3 19 0
-3 -61 0
19 -61 0
3 -19 61 0
c gate 62 3 -19 0
3 -62 0
-19 -62 0
-3 19 62 0
c gate 63 -61 -62 0
-61 -63 0
-62 -63 0
61 62 63 0
c gate 64 -44 -63 0
-44 -64 0
-63 -64 0
44 63 64 0
c gate 65 -37 -64 0
-37 -65 0
-64 -65 0
37 64 65 0
c gate 66 48 65 0
48 -66 0
65 -66 0
-48 -65 66 0
c gate 67 -47 -66 0
-47 -67 0
-66 -67 0
47 66 67 0
c gate 68 -60 67 0
-60 -68 0
67 -68 0
60 -67 68 0
c gate 69 -35 -68 0
-35 -69 0
-68 -69 0
35 68 69 0
c gate 70 6 -22 0
6 -70 0
-22 -70 0
-6 22 70 0
c gate 71 -6 22 0
-6 -71 0
22 -71 0
6 -22 71 0
c gate 72 -70 -71 0
-70 -72 0
-71 -72 0
70 71 72 0
c gate 73 -69 -72 0
-69 -73 0
-72 -73 0
69 72 73 0
c gate 74 -57 -73 0
-57 -74 0
-73 -74 0
57 73 74 0
c gate 75 7 -23 0
7 -75 0
-23 -75 0
-7 23 75 0
c gate 76 -7 23 0
-7 -76 0
23 -76 0
7 -23 76 0
c gate 77 -75 -76 0
-75 -77 0
-76 -77 0
75 76 77 0
c gate 78 -74 -77 0
-74 -78 0
-77 -78 0
74 77 78 0
c gate 79 -56 -78 0
-56 -79 0
-78 -79 0
56 78 79 0
c gate 80 -55 -79 0
-55 -80 0
-79 -80 0
55 79 80 0
c gate 81 -54 -80 0
-54 -81 0
-80 -81 0
54 80 81 0
c gate 82 53 81 0
53 -82 0
81 -82 0
-53 -81 82 0
c gate 83 -53 -54 0
-53 -83 0
-54 -83 0
53 54 83 0
c gate 84 80 83 0
80 -84 0
83 -84 0
-80 -83 84 0
c gate 85 -82 -84 0
-82 -85 0
-84 -85 0
82 84 85 0
c gate 86 11 27 0
11 -86 0
27 -86 0
-11 -27 86 0
c gate 87 10 26 0
10 -87 0
26 -87 0
-10 -26 87 0
c gate 88 -9 -25 0
-9 -88 0
-25 -88 0
9 25 88 0
c gate 89 -10 -26 0
-10 -89 0
-26 -89 0
10 26 89 0
c gate 90 -88 -89 0
-88 -90 0
-89 -90 0
88 89 90 0
c gate 91 9 25 0
9 -91 0
25 -91 0
-9 -25 91 0
c gate 92 83 -91 0
83 -92 0
-91 -92 0
-83 91 92 0
c gate 93 90 -92 0
90 -93 0
-92 -93 0
-90 92 93 0
c gate 94 -87 -93 0
-87 -94 0
-93 -94 0
87 93 94 0
c gate 95 -11 -27 0
-11 -95 0
-27 -95 0
11 27 95 0
c gate 96 -86 -95 0
-86 -96 0
-95 -96 0
86 95 96 0
c gate 97 -94 96 0
-94 -97 0
96 -97 0
94 -96 97 0
c gate 98 -86 -97 0
-86 -98 0
-97 -98 0
86 97 98 0
c gate 99 81 -91 0
81 -99 0
-91 -99 0
-81 91 99 0
c gate 100 90 -99 0
90 -100 0
-99 -100 0
-90 99 100 0
c gate 101 -87 -100 0
-87 -101 0
-100 -101 0
87 100 101 0
c gate 102 -95 -101 0
-95 -102 0
-101 -102 0
95 101 102 0
c gate 103 -86 -102 0
-86 -103 0
-102 -103 0
86 102 103 0
c gate 104 -98 -103 0
-98 -104 0
-103 -104 0
98 103 104 0
c gate 105 98 -102 0
98 -105 0
-102 -105 0
-98 102 105 0
c gate 106 -104 -105 0
-104 -106 0
-105 -106 0
104 105 106 0
c gate 107 -87 -89 0
-87 -107 0
-89 -107 0
87 89 107 0
c gate 108 -88 -91 0
-88 -108 0
-91 -108 0
88 91 108 0
c gate 109 96 108 0
96 -109 0
108 -109 0
-96 -108 109 0
c gate 110 107 109 0
107 -110 0
109 -110 0
-107 -109 110 0
c gate 111 84 -110 0
84 -111 0
-110 -111 0
-84 110 111 0
c gate 112 82 110 0
82 -112 0
110 -112 0
-82 -110 112 0
c gate 113 -111 -112 0
-111 -113 0
-112 -113 0
111 112 113 0
c gate 114 -106 113 0
-106 -114 0
113 -114 0
106 -113 114 0
c gate 115 -12 28 0
-12 -115 0
28 -115 0
12 -28 115 0
c gate 116 12 -28 0
12 -116 0
-28 -116 0
-12 28 116 0
c gate 117 -115 -116 0
-115 -117 0
-116 -117 0
115 116 117 0
c gate 118 -103 117 0
-103 -118 0
117 -118 0
103 -117 118 0
c gate 119 -98 -117 0
-98 -119 0
-117 -119 0
98 117 119 0
c gate 120 -105 -119 0
-105 -120 0
-119 -120 0
105 119 120 0
c gate 121 -118 120 0
-118 -121 0
120 -121 0
118 -120 121 0
c gate 122 -114 -121 0
-114 -122 0
-121 -122 0
114 121 122 0
c gate 123 -85 -122 0
-85 -123 0
-122 -123 0
85 122 123 0
c gate 124 106 -117 0
106 -124 0
-117 -124 0
-106 117 124 0
c gate 125 -123 -124 0
-123 -125 0
-124 -125 0
123 124 125 0
c gate 126 15 31 0
15 -126 0
31 -126 0
-15 -31 126 0
c gate 127 -15 -31 0
-15 -127 0
-31 -127 0
15 31 127 0
c gate 128 14 30 0
14 -128 0
30 -128 0
-14 -30 128 0
c gate 129 -13 -29 0
-13 -129 0
-29 -129 0
13 29 129 0
c gate 130 -14 -30 0
-14 -130 0
-30 -130 0
14 30 130 0
c gate 131 -129 -130 0
-129 -131 0
-130 -131 0
129 130 131 0
c gate 132 -12 -28 0
-12 -132 0
-28 -132 0
12 28 132 0
c gate 133 -103 -132 0
-103 -133 0
-132 -133 0
103 132 133 0
c gate 134 12 28 0
12 -134 0
28 -134 0
-12 -28 134 0
c gate 135 13 29 0
13 -135 0
29 -135 0
-13 -29 135 0
c gate 136 -134 -135 0
-134 -136 0
-135 -136 0
134 135 136 0
c gate 137 -133 136 0
-133 -137 0
136 -137 0
133 -136 137 0
c gate 138 131 -137 0
131 -138 0
-137 -138 0
-131 137 138 0
c gate 139 -128 -138 0
-128 -139 0
-138 -139 0
128 138 139 0
c gate 140 -127 -139 0
-127 -140 0
-139 -140 0
127 139 140 0
c gate 141 -126 -140 0
-126 -141 0
-140 -141 0
126 140 141 0
c gate 142 16 -32 0
16 -142 0
-32 -142 0
-16 32 142 0
c gate 143 -16 32 0
-16 -143 0
32 -143 0
16 -32 143 0
c gate 144 -142 -143 0
-142 -144 0
-143 -144 0
142 143 144 0
c gate 145 141 -144 0
141 -145 0
-144 -145 0
-141 144 145 0
c gate 146 -141 144 0
-141 -146 0
144 -146 0
141 -144 146 0
c gate 147 -145 -146 0
-145 -147 0
-146 -147 0
145 146 147 0
c gate 148 -119 -134 0
-119 -148 0
-134 -148 0
119 134 148 0
c gate 149 -135 148 0
-135 -149 0
148 -149 0
135 -148 149 0
c gate 150 131 -149 0
131 -150 0
-149 -150 0
-131 149 150 0
c gate 151 -128 -150 0
-128 -151 0
-150 -151 0
128 150 151 0
c gate 152 -127 -151 0
-127 -152 0
-151 -152 0
127 151 152 0
c gate 153 -126 -152 0
-126 -153 0
-152 -153 0
126 152 153 0
c gate 154 144 -153 0
144 -154 0
-153 -154 0
-144 153 154 0
c gate 155 -144 153 0
-144 -155 0
153 -155 0
144 -153 155 0
c gate 156 -154 -155 0
-154 -156 0
-155 -156 0
154 155 156 0
c gate 157 -147 156 0
-147 -157 0
156 -157 0
147 -156 157 0
c gate 158 147 -156 0
147 -158 0
-156 -158 0
-147 156 158 0
c gate 159 -97 -102 0
-97 -159 0
-102 -159 0
97 102 159 0
c gate 160 -14 30 0
-14 -160 0
30 -160 0
14 -30 160 0
c gate 161 14 -30 0
14 -161 0
-30 -161 0
-14 30 161 0
c gate 162 -160 -161 0
-160 -162 0
-161 -162 0
160 161 162 0
c gate 163 -126 -127 0
-126 -163 0
-127 -163 0
126 127 163 0
c gate 164 -13 29 0
-13 -164 0
29 -164 0
13 -29 164 0
c gate 165 13 -29 0
13 -165 0
-29 -165 0
-13 29 165 0
c gate 166 -164 -165 0
-164 -166 0
-165 -166 0
164 165 166 0
c gate 167 163 -166 0
163 -167 0
-166 -167 0
-163 166 167 0
c gate 168 -162 167 0
-162 -168 0
167 -168 0
162 -167 168 0
c gate 169 102 168 0
102 -169 0
168 -169 0
-102 -168 169 0
c gate 170 97 -168 0
97 -170 0
-168 -170 0
-97 168 170 0
c gate 171 -86 -117 0
-86 -171 0
-117 -171 0
86 117 171 0
c gate 172 -170 171 0
-170 -172 0
171 -172 0
170 -171 172 0
c gate 173 -169 172 0
-169 -173 0
172 -173 0
169 -172 173 0
c gate 174 -159 173 0
-159 -174 0
173 -174 0
159 -173 174 0
c gate 175 -158 174 0
-158 -175 0
174 -175 0
158 -174 175 0
c gate 176 -157 -175 0
-157 -176 0
-175 -176 0
157 175 176 0
c gate 177 -125 176 0
-125 -177 0
176 -177 0
125 -176 177 0
c gate 178 -54 -55 0
-54 -178 0
-55 -178 0
54 55 178 0
c gate 179 53 178 0
53 -179 0
178 -179 0
-53 -178 179 0
c gate 180 79 -179 0
79 -180 0
-179 -180 0
-79 179 180 0
c gate 181 -79 178 0
-79 -181 0
178 -181 0
79 -178 181 0
c gate 182 -180 -181 0
-180 -182 0
-181 -182 0
180 181 182 0
c gate 183 74 77 0
74 -183 0
77 -183 0
-74 -77 183 0
c gate 184 -78 -183 0
-78 -184 0
-183 -184 0
78 183 184 0
c gate 185 52 77 0
52 -185 0
77 -185 0
-52 -77 185 0
c gate 186 -52 -77 0
-52 -186 0
-77 -186 0
52 77 186 0
c gate 187 -185 -186 0
-185 -187 0
-186 -187 0
185 186 187 0
c gate 188 -184 -187 0
-184 -188 0
-187 -188 0
184 187 188 0
c gate 189 184 187 0
184 -189 0
187 -189 0
-184 -187 189 0
c gate 190 69 72 0
69 -190 0
72 -190 0
-69 -72 190 0
c gate 191 -73 -190 0
-73 -191 0
-190 -191 0
73 190 191 0
c gate 192 51 72 0
51 -192 0
72 -192 0
-51 -72 192 0
c gate 193 -51 -72 0
-51 -193 0
-72 -193 0
51 72 193 0
c gate 194 -192 -193 0
-192 -194 0
-193 -194 0
192 193 194 0
c gate 195 -191 194 0
-191 -195 0
194 -195 0
191 -194 195 0
c gate 196 60 -67 0
60 -196 0
-67 -196 0
-60 67 196 0
c gate 197 -68 -196 0
-68 -197 0
-196 -197 0
68 196 197 0
c gate 198 50 -60 0
50 -198 0
-60 -198 0
-50 60 198 0
c gate 199 -50 60 0
-50 -199 0
60 -199 0
50 -60 199 0
c gate 200 -198 -199 0
-198 -200 0
-199 -200 0
198 199 200 0
c gate 201 197 200 0
197 -201 0
200 -201 0
-197 -200 201 0
c gate 202 191 -194 0
191 -202 0
-194 -202 0
-191 194 202 0
c gate 203 -195 -202 0
-195 -203 0
-202 -203 0
195 202 203 0
c gate 204 -201 203 0
-201 -204 0
203 -204 0
201 -203 204 0
c gate 205 -195 -204 0
-195 -205 0
-204 -205 0
195 204 205 0
c gate 206 -189 -205 0
-189 -206 0
-205 -206 0
189 205 206 0
c gate 207 18 -63 0
18 -207 0
-63 -207 0
-18 63 207 0
c gate 208 -44 -207 0
-44 -208 0
-207 -208 0
44 207 208 0
c gate 209 -197 -200 0
-197 -209 0
-200 -209 0
197 200 209 0
c gate 210 -2 64 0
-2 -210 0
64 -210 0
2 -64 210 0
c gate 211 -48 -65 0
-48 -211 0
-65 -211 0
48 65 211 0
c gate 212 -66 -211 0
-66 -212 0
-211 -212 0
66 211 212 0
c gate 213 46 -48 0
46 -213 0
-48 -213 0
-46 48 213 0
c gate 214 -49 -213 0
-49 -214 0
-213 -214 0
49 213 214 0
c gate 215 212 214 0
212 -215 0
214 -215 0
-212 -214 215 0
c gate 216 -210 -215 0
-210 -216 0
-215 -216 0
210 215 216 0
c gate 217 -209 216 0
-209 -217 0
216 -217 0
209 -216 217 0
c gate 218 204 217 0
204 -218 0
217 -218 0
-204 -217 218 0
c gate 219 208 218 0
208 -219 0
218 -219 0
-208 -218 219 0
c gate 220 206 -219 0
206 -220 0
-219 -220 0
-206 219 220 0
c gate 221 -188 -220 0
-188 -221 0
-220 -221 0
188 220 221 0
c gate 222 -182 -221 0
-182 -222 0
-221 -222 0
182 221 222 0
c gate 223 85 222 0
85 -223 0
222 -223 0
-85 -222 223 0
c gate 224 -177 -223 0
-177 -224 0
-223 -224 0
177 223 224 0
c gate 225 148 158 0
148 -225 0
158 -225 0
-148 -158 225 0
c gate 226 145 152 0
145 -226 0
152 -226 0
-145 -152 226 0
c gate 227 -224 -226 0
-224 -227 0
-226 -227 0
224 226 227 0
c gate 228 -225 -227 0
-225 -228 0
-227 -228 0
225 227 228 0
c gate 229 4 -20 0
4 -229 0
-20 -229 0
-4 20 229 0
c gate 230 -1 17 0
-1 -230 0
17 -230 0
1 -17 230 0
c gate 231 -38 -230 0
-38 -231 0
-230 -231 0
38 230 231 0
c gate 232 -39 -62 0
-39 -232 0
-62 -232 0
39 62 232 0
c gate 233 -231 232 0
-231 -233 0
232 -233 0
231 -232 233 0
c gate 234 -61 -233 0
-61 -234 0
-233 -234 0
61 233 234 0
c gate 235 229 -234 0
229 -235 0
-234 -235 0
-229 234 235 0
c gate 236 -228 -235 0
-228 -236 0
-235 -236 0
228 235 236 0
c gate 237 60 72 0
60 -237 0
72 -237 0
-60 -72 237 0
c gate 238 77 237 0
77 -238 0
237 -238 0
-77 -237 238 0
c gate 239 235 238 0
235 -239 0
238 -239 0
-235 -238 239 0
c gate 240 -236 -239 0
-236 -240 0
-239 -240 0
236 239 240 0
c gate 241 -15 31 0
-15 -241 0
31 -241 0
15 -31 241 0
c gate 242 -11 27 0
-11 -242 0
27 -242 0
11 -27 242 0
c gate 243 11 -27 0
11 -243 0
-27 -243 0
-11 27 243 0
c gate 244 -10 26 0
-10 -244 0
26 -244 0
10 -26 244 0
c gate 245 10 -26 0
10 -245 0
-26 -245 0
-10 26 245 0
c gate 246 9 -25 0
9 -246 0
-25 -246 0
-9 25 246 0
c gate 247 -245 -246 0
-245 -247 0
-246 -247 0
245 246 247 0
c gate 248 8 -24 0
8 -248 0
-24 -248 0
-8 24 248 0
c gate 249 -48 234 0
-48 -249 0
234 -249 0
48 -234 249 0
c gate 250 -59 -229 0
-59 -250 0
-229 -250 0
59 229 250 0
c gate 251 -249 250 0
-249 -251 0
250 -251 0
249 -250 251 0
c gate 252 -58 -251 0
-58 -252 0
-251 -252 0
58 251 252 0
c gate 253 -70 -252 0
-70 -253 0
-252 -253 0
70 252 253 0
c gate 254 -71 -76 0
-71 -254 0
-76 -254 0
71 76 254 0
c gate 255 -253 254 0
-253 -255 0
254 -255 0
253 -254 255 0
c gate 256 -75 -255 0
-75 -256 0
-255 -256 0
75 255 256 0
c gate 257 -248 256 0
-248 -257 0
256 -257 0
248 -256 257 0
c gate 258 -9 25 0
-9 -258 0
25 -258 0
9 -25 258 0
c gate 259 -8 24 0
-8 -259 0
24 -259 0
8 -24 259 0
c gate 260 -258 -259 0
-258 -260 0
-259 -260 0
258 259 260 0
c gate 261 -257 260 0
-257 -261 0
260 -261 0
257 -260 261 0
c gate 262 247 -261 0
247 -262 0
-261 -262 0
-247 261 262 0
c gate 263 -244 -262 0
-244 -263 0
-262 -263 0
244 262 263 0
c gate 264 -243 -263 0
-243 -264 0
-263 -264 0
243 263 264 0
c gate 265 -242 -264 0
-242 -265 0
-264 -265 0
242 264 265 0
c gate 266 -243 -248 0
-243 -266 0
-248 -266 0
243 248 266 0
c gate 267 247 266 0
247 -267 0
266 -267 0
-247 -266 267 0
c gate 268 239 267 0
239 -268 0
267 -268 0
-239 -267 268 0
c gate 269 -115 -268 0
-115 -269 0
-268 -269 0
115 268 269 0
c gate 270 265 269 0
265 -270 0
269 -270 0
-265 -269 270 0
c gate 271 -116 -165 0
-116 -271 0
-165 -271 0
116 165 271 0
c gate 272 -270 271 0
-270 -272 0
271 -272 0
270 -271 272 0
c gate 273 -164 -272 0
-164 -273 0
-272 -273 0
164 272 273 0
c gate 274 -161 -273 0
-161 -274 0
-273 -274 0
161 273 274 0
c gate 275 -160 -274 0
-160 -275 0
-274 -275 0
160 274 275 0
c gate 276 15 -31 0
15 -276 0
-31 -276 0
-15 31 276 0
c gate 277 -275 -276 0
-275 -277 0
-276 -277 0
275 276 277 0
c gate 278 -241 -277 0
-241 -278 0
-277 -278 0
241 277 278 0
c gate 279 144 -278 0
144 -279 0
-278 -279 0
-144 278 279 0
c gate 280 -116 -265 0
-116 -280 0
-265 -280 0
116 265 280 0
c gate 281 -115 -164 0
-115 -281 0
-164 -281 0
115 164 281 0
c gate 282 -280 281 0
-280 -282 0
281 -282 0
280 -281 282 0
c gate 283 -165 -282 0
-165 -283 0
-282 -283 0
165 282 283 0
c gate 284 -160 -283 0
-160 -284 0
-283 -284 0
160 283 284 0
c gate 285 -161 -284 0
-161 -285 0
-284 -285 0
161 284 285 0
c gate 286 -241 -285 0
-241 -286 0
-285 -286 0
241 285 286 0
c gate 287 -276 -286 0
-276 -287 0
-286 -287 0
276 286 287 0
c gate 288 144 287 0
144 -288 0
287 -288 0
-144 -287 288 0
c gate 289 277 286 0
277 -289 0
286 -289 0
-277 -286 289 0
c gate 290 -288 -289 0
-288 -290 0
-289 -290 0
288 289 290 0
c gate 291 -279 -290 0
-279 -291 0
-290 -291 0
279 290 291 0
c gate 292 163 -275 0
163 -292 0
-275 -292 0
-163 275 292 0
c gate 293 -285 292 0
-285 -293 0
292 -293 0
285 -292 293 0
c gate 294 -163 275 0
-163 -294 0
275 -294 0
163 -275 294 0
c gate 295 285 294 0
285 -295 0
294 -295 0
-285 -294 295 0
c gate 296 -96 -108 0
-96 -296 0
-108 -296 0
96 108 296 0
c gate 297 -107 -178 0
-107 -297 0
-178 -297 0
107 178 297 0
c gate 298 296 297 0
296 -298 0
297 -298 0
-296 -297 298 0
c gate 299 -256 -298 0
-256 -299 0
-298 -299 0
256 298 299 0
c gate 300 117 166 0
117 -300 0
166 -300 0
-117 -166 300 0
c gate 301 267 -300 0
267 -301 0
-300 -301 0
-267 300 301 0
c gate 302 265 301 0
265 -302 0
301 -302 0
-265 -301 302 0
c gate 303 -299 -302 0
-299 -303 0
-302 -303 0
299 302 303 0
c gate 304 239 -303 0
239 -304 0
-303 -304 0
-239 303 304 0
c gate 305 -162 -273 0
-162 -305 0
-273 -305 0
162 273 305 0
c gate 306 -283 305 0
-283 -306 0
305 -306 0
283 -305 306 0
c gate 307 -304 -306 0
-304 -307 0
-306 -307 0
304 306 307 0
c gate 308 -295 307 0
-295 -308 0
307 -308 0
295 -307 308 0
c gate 309 -293 308 0
-293 -309 0
308 -309 0
293 -308 309 0
c gate 310 -291 309 0
-291 -310 0
309 -310 0
291 -309 310 0
c gate 311 -240 310 0
-240 -311 0
310 -311 0
240 -310 311 0
c gate 312 -224 311 0
-224 -312 0
311 -312 0
224 -311 312 0
c gate 313 206 -218 0
206 -313 0
-218 -313 0
-206 218 313 0
c gate 314 -188 -313 0
-188 -314 0
-313 -314 0
188 313 314 0
c gate 315 -182 -314 0
-182 -315 0
-314 -315 0
182 314 315 0
c gate 316 -122 315 0
-122 -316 0
315 -316 0
122 -315 316 0
c gate 317 125 -316 0
125 -317 0
-316 -317 0
-125 316 317 0
c gate 318 176 -317 0
176 -318 0
-317 -318 0
-176 317 318 0
c gate 319 -311 -318 0
-311 -319 0
-318 -319 0
311 318 319 0
c gate 320 -312 -319 0
-312 -320 0
-319 -320 0
312 319 320 0
c PO
320 0
